QPLIB_3338
LCQ
minimize
320 # number of variables
136 # number of constraints
0.0 # default value for linear coefficients in objective
39 # number of non-default linear coefficients in objective
1 1.0
2 1.0
3 1.0
4 1.0
5 1.0
6 1.0
7 1.0
8 1.0
9 1.0
10 1.0
11 1.0
12 1.0
13 1.0
14 1.0
15 1.0
16 1.0
17 1.0
18 1.0
19 1.0
20 1.0
21 1.0
22 1.0
23 1.0
24 1.0
25 1.0
26 1.0
27 1.0
28 1.0
29 1.0
30 1.0
31 1.0
32 1.0
33 1.0
34 1.0
35 1.0
36 1.0
37 1.0
38 1.0
39 1.0
0.0 # objective constant
720 # number of quadratic terms in all constraints
27 50 1 2.0
27 50 1 -2.0
27 50 1 -2.0
27 50 1 -2.0
27 50 1 -2.0
27 50 1 -2.0
27 50 1 -2.0
27 50 1 -2.0
27 50 1 -2.0
27 50 1 -2.0
28 1 -1074790399 2.0
28 1 -1074790399 -2.0
28 1 -1074790399 -2.0
28 1 -1074790399 -2.0
28 1 -1074790399 -2.0
28 1 -1074790399 -2.0
28 1 -1074790399 -2.0
28 1 -1074790399 -2.0
28 1 -1074790399 -2.0
28 1 -1074790399 -2.0
29 1651076121 1 2.0
29 1651076121 1 -2.0
29 1651076121 1 -2.0
29 1651076121 1 -2.0
29 1651076121 1 -2.0
29 1651076121 1 -2.0
29 1651076121 1 -2.0
29 1651076121 1 -2.0
29 1651076121 1 -2.0
29 1651076121 1 -2.0
30 1668834403 -1074790399 2.0
30 1668834403 -1074790399 -2.0
30 1668834403 -1074790399 -2.0
30 1668834403 -1074790399 -2.0
30 1668834403 -1074790399 -2.0
30 1668834403 -1074790399 -2.0
30 1668834403 -1074790399 -2.0
30 1668834403 -1074790399 -2.0
30 1668834403 -1074790399 -2.0
30 1668834403 -1074790399 -2.0
31 1651076196 1 2.0
31 1651076196 1 -2.0
31 1651076196 1 -2.0
31 1651076196 1 -2.0
31 1651076196 1 -2.0
31 1651076196 1 -2.0
31 1651076196 1 -2.0
31 1651076196 1 -2.0
31 1651076196 1 -2.0
31 1651076196 1 -2.0
32 1932407863 -1074790399 2.0
32 1932407863 -1074790399 -2.0
32 1932407863 -1074790399 -2.0
32 1932407863 -1074790399 -2.0
32 1932407863 -1074790399 -2.0
32 1932407863 -1074790399 -2.0
32 1932407863 -1074790399 -2.0
32 1932407863 -1074790399 -2.0
32 1932407863 -1074790399 -2.0
32 1932407863 -1074790399 -2.0
33 1684152432 1 2.0
33 1684152432 1 -2.0
33 1684152432 1 -2.0
33 1684152432 1 -2.0
33 1684152432 1 -2.0
33 1684152432 1 -2.0
33 1684152432 1 -2.0
33 1684152432 1 -2.0
33 1684152432 1 -2.0
33 1684152432 1 -2.0
34 540156025 1 2.0
34 540156025 1 -2.0
34 540156025 1 -2.0
34 540156025 1 -2.0
34 540156025 1 -2.0
34 540156025 1 -2.0
34 540156025 1 -2.0
34 540156025 1 -2.0
34 540156025 1 -2.0
34 540156025 1 -2.0
35 1163218737 130 2.0
35 1163218737 130 -2.0
35 1163218737 130 -2.0
35 1163218737 130 -2.0
35 1163218737 130 -2.0
35 1163218737 130 -2.0
35 1163218737 130 -2.0
35 1163218737 130 -2.0
35 1163218737 130 -2.0
35 1163218737 130 -2.0
36 541412943 1 2.0
36 541412943 1 -2.0
36 541412943 1 -2.0
36 541412943 1 -2.0
36 541412943 1 -2.0
36 541412943 1 -2.0
36 541412943 1 -2.0
36 541412943 1 -2.0
36 541412943 1 -2.0
36 541412943 1 -2.0
37 540094770 524860393 2.0
37 540094770 524860393 -2.0
37 540094770 524860393 -2.0
37 540094770 524860393 -2.0
37 540094770 524860393 -2.0
37 540094770 524860393 -2.0
37 540094770 524860393 -2.0
37 540094770 524860393 -2.0
37 540094770 524860393 -2.0
37 540094770 524860393 -2.0
38 540090417 32611 2.0
38 540090417 32611 -2.0
38 540090417 32611 -2.0
38 540090417 32611 -2.0
38 540090417 32611 -2.0
38 540090417 32611 -2.0
38 540090417 32611 -2.0
38 540090417 32611 -2.0
38 540090417 32611 -2.0
38 540090417 32611 -2.0
39 524860393 50 2.0
39 524860393 50 -2.0
39 524860393 50 -2.0
39 524860393 50 -2.0
39 524860393 50 -2.0
39 524860393 50 -2.0
39 524860393 50 -2.0
39 524860393 50 -2.0
39 524860393 50 -2.0
39 524860393 50 -2.0
40 32611 1 2.0
40 32611 1 -2.0
40 32611 1 -2.0
40 32611 1 -2.0
40 32611 1 -2.0
40 32611 1 -2.0
40 32611 1 -2.0
40 32611 1 -2.0
40 32611 1 -2.0
40 32611 1 -2.0
41 1651076122 1 2.0
41 1651076122 1 -2.0
41 1651076122 1 -2.0
41 1651076122 1 -2.0
41 1651076122 1 -2.0
41 1651076122 1 -2.0
41 1651076122 1 -2.0
41 1651076122 1 -2.0
41 1651076122 1 -2.0
41 1651076122 1 -2.0
42 1852403556 1 2.0
42 1852403556 1 -2.0
42 1852403556 1 -2.0
42 1852403556 1 -2.0
42 1852403556 1 -2.0
42 1852403556 1 -2.0
42 1852403556 1 -2.0
42 1852403556 1 -2.0
42 1852403556 1 -2.0
42 1852403556 1 -2.0
43 1768711012 1 2.0
43 1768711012 1 -2.0
43 1768711012 1 -2.0
43 1768711012 1 -2.0
43 1768711012 1 -2.0
43 1768711012 1 -2.0
43 1768711012 1 -2.0
43 1768711012 1 -2.0
43 1768711012 1 -2.0
43 1768711012 1 -2.0
44 775173731 1 2.0
44 775173731 1 -2.0
44 775173731 1 -2.0
44 775173731 1 -2.0
44 775173731 1 -2.0
44 775173731 1 -2.0
44 775173731 1 -2.0
44 775173731 1 -2.0
44 775173731 1 -2.0
44 775173731 1 -2.0
45 1646292852 1 2.0
45 1646292852 1 -2.0
45 1646292852 1 -2.0
45 1646292852 1 -2.0
45 1646292852 1 -2.0
45 1646292852 1 -2.0
45 1646292852 1 -2.0
45 1646292852 1 -2.0
45 1646292852 1 -2.0
45 1646292852 1 -2.0
46 824209008 1 2.0
46 824209008 1 -2.0
46 824209008 1 -2.0
46 824209008 1 -2.0
46 824209008 1 -2.0
46 824209008 1 -2.0
46 824209008 1 -2.0
46 824209008 1 -2.0
46 824209008 1 -2.0
46 824209008 1 -2.0
47 1852125217 1 2.0
47 1852125217 1 -2.0
47 1852125217 1 -2.0
47 1852125217 1 -2.0
47 1852125217 1 -2.0
47 1852125217 1 -2.0
47 1852125217 1 -2.0
47 1852125217 1 -2.0
47 1852125217 1 -2.0
47 1852125217 1 -2.0
48 1915646838 1 2.0
48 1915646838 1 -2.0
48 1915646838 1 -2.0
48 1915646838 1 -2.0
48 1915646838 1 -2.0
48 1915646838 1 -2.0
48 1915646838 1 -2.0
48 1915646838 1 -2.0
48 1915646838 1 -2.0
48 1915646838 1 -2.0
49 769 49 2.0
49 769 49 -2.0
49 769 49 -2.0
49 769 49 -2.0
49 769 49 -2.0
49 769 49 -2.0
49 769 49 -2.0
49 769 49 -2.0
49 769 49 -2.0
49 769 49 -2.0
50 1 1 2.0
50 1 1 -2.0
50 1 1 -2.0
50 1 1 -2.0
50 1 1 -2.0
50 1 1 -2.0
50 1 1 -2.0
50 1 1 -2.0
50 1 1 -2.0
50 1 1 -2.0
51 306 66 2.0
51 306 66 -2.0
51 306 66 -2.0
51 306 66 -2.0
51 306 66 -2.0
51 306 66 -2.0
51 306 66 -2.0
51 306 66 -2.0
51 306 66 -2.0
51 306 66 -2.0
52 1 1 2.0
52 1 1 -2.0
52 1 1 -2.0
52 1 1 -2.0
52 1 1 -2.0
52 1 1 -2.0
52 1 1 -2.0
52 1 1 -2.0
52 1 1 -2.0
52 1 1 -2.0
53 39699249 39654161 2.0
53 39699249 39654161 -2.0
53 39699249 39654161 -2.0
53 39699249 39654161 -2.0
53 39699249 39654161 -2.0
53 39699249 39654161 -2.0
53 39699249 39654161 -2.0
53 39699249 39654161 -2.0
53 39699249 39654161 -2.0
53 39699249 39654161 -2.0
54 1 1 2.0
54 1 1 -2.0
54 1 1 -2.0
54 1 1 -2.0
54 1 1 -2.0
54 1 1 -2.0
54 1 1 -2.0
54 1 1 -2.0
54 1 1 -2.0
54 1 1 -2.0
55 524860569 39652977 2.0
55 524860569 39652977 -2.0
55 524860569 39652977 -2.0
55 524860569 39652977 -2.0
55 524860569 39652977 -2.0
55 524860569 39652977 -2.0
55 524860569 39652977 -2.0
55 524860569 39652977 -2.0
55 524860569 39652977 -2.0
55 524860569 39652977 -2.0
56 32611 1 2.0
56 32611 1 -2.0
56 32611 1 -2.0
56 32611 1 -2.0
56 32611 1 -2.0
56 32611 1 -2.0
56 32611 1 -2.0
56 32611 1 -2.0
56 32611 1 -2.0
56 32611 1 -2.0
57 39653233 39653169 2.0
57 39653233 39653169 -2.0
57 39653233 39653169 -2.0
57 39653233 39653169 -2.0
57 39653233 39653169 -2.0
57 39653233 39653169 -2.0
57 39653233 39653169 -2.0
57 39653233 39653169 -2.0
57 39653233 39653169 -2.0
57 39653233 39653169 -2.0
58 1 1 2.0
58 1 1 -2.0
58 1 1 -2.0
58 1 1 -2.0
58 1 1 -2.0
58 1 1 -2.0
58 1 1 -2.0
58 1 1 -2.0
58 1 1 -2.0
58 1 1 -2.0
59 39653217 34 2.0
59 39653217 34 -2.0
59 39653217 34 -2.0
59 39653217 34 -2.0
59 39653217 34 -2.0
59 39653217 34 -2.0
59 39653217 34 -2.0
59 39653217 34 -2.0
59 39653217 34 -2.0
59 39653217 34 -2.0
60 1 1 2.0
60 1 1 -2.0
60 1 1 -2.0
60 1 1 -2.0
60 1 1 -2.0
60 1 1 -2.0
60 1 1 -2.0
60 1 1 -2.0
60 1 1 -2.0
60 1 1 -2.0
61 524860281 39654401 2.0
61 524860281 39654401 -2.0
61 524860281 39654401 -2.0
61 524860281 39654401 -2.0
61 524860281 39654401 -2.0
61 524860281 39654401 -2.0
61 524860281 39654401 -2.0
61 524860281 39654401 -2.0
61 524860281 39654401 -2.0
61 524860281 39654401 -2.0
62 32611 1 2.0
62 32611 1 -2.0
62 32611 1 -2.0
62 32611 1 -2.0
62 32611 1 -2.0
62 32611 1 -2.0
62 32611 1 -2.0
62 32611 1 -2.0
62 32611 1 -2.0
62 32611 1 -2.0
63 39653217 1 2.0
63 39653217 1 -2.0
63 39653217 1 -2.0
63 39653217 1 -2.0
63 39653217 1 -2.0
63 39653217 1 -2.0
63 39653217 1 -2.0
63 39653217 1 -2.0
63 39653217 1 -2.0
63 39653217 1 -2.0
64 23 1 2.0
64 23 1 -2.0
64 23 1 -2.0
64 23 1 -2.0
64 23 1 -2.0
64 23 1 -2.0
64 23 1 -2.0
64 23 1 -2.0
64 23 1 -2.0
64 23 1 -2.0
65 129 23 2.0
65 129 23 -2.0
65 129 23 -2.0
65 129 23 -2.0
65 129 23 -2.0
65 129 23 -2.0
65 129 23 -2.0
65 129 23 -2.0
65 129 23 -2.0
65 129 23 -2.0
66 23 1 2.0
66 23 1 -2.0
66 23 1 -2.0
66 23 1 -2.0
66 23 1 -2.0
66 23 1 -2.0
66 23 1 -2.0
66 23 1 -2.0
66 23 1 -2.0
66 23 1 -2.0
67 33 23 2.0
67 33 23 -2.0
67 33 23 -2.0
67 33 23 -2.0
67 33 23 -2.0
67 33 23 -2.0
67 33 23 -2.0
67 33 23 -2.0
67 33 23 -2.0
67 33 23 -2.0
68 23 1 2.0
68 23 1 -2.0
68 23 1 -2.0
68 23 1 -2.0
68 23 1 -2.0
68 23 1 -2.0
68 23 1 -2.0
68 23 1 -2.0
68 23 1 -2.0
68 23 1 -2.0
69 1920287498 23 2.0
69 1920287498 23 -2.0
69 1920287498 23 -2.0
69 1920287498 23 -2.0
69 1920287498 23 -2.0
69 1920287498 23 -2.0
69 1920287498 23 -2.0
69 1920287498 23 -2.0
69 1920287498 23 -2.0
69 1920287498 23 -2.0
70 1986817876 23 2.0
70 1986817876 23 -2.0
70 1986817876 23 -2.0
70 1986817876 23 -2.0
70 1986817876 23 -2.0
70 1986817876 23 -2.0
70 1986817876 23 -2.0
70 1986817876 23 -2.0
70 1986817876 23 -2.0
70 1986817876 23 -2.0
71 524841574 23 2.0
71 524841574 23 -2.0
71 524841574 23 -2.0
71 524841574 23 -2.0
71 524841574 23 -2.0
71 524841574 23 -2.0
71 524841574 23 -2.0
71 524841574 23 -2.0
71 524841574 23 -2.0
71 524841574 23 -2.0
72 32611 23 -2.0
72 32611 23 -2.0
72 32611 23 -2.0
72 32611 23 -2.0
72 32611 23 -2.0
72 32611 23 -2.0
72 32611 23 -2.0
72 32611 23 -2.0
72 32611 23 -2.0
73 39656529 23 -2.0
73 39656529 23 -2.0
73 39656529 23 -2.0
73 39656529 23 -2.0
73 39656529 23 -2.0
73 39656529 23 -2.0
73 39656529 23 -2.0
73 39656529 23 -2.0
73 39656529 23 -2.0
74 23 1 -2.0
74 23 1 -2.0
74 23 1 -2.0
74 23 1 -2.0
74 23 1 -2.0
74 23 1 -2.0
74 23 1 -2.0
74 23 1 -2.0
74 23 1 -2.0
75 130 23 -2.0
75 130 23 -2.0
75 130 23 -2.0
75 130 23 -2.0
75 130 23 -2.0
75 130 23 -2.0
75 130 23 -2.0
75 130 23 -2.0
75 130 23 -2.0
76 23 1 -2.0
76 23 1 -2.0
76 23 1 -2.0
76 23 1 -2.0
76 23 1 -2.0
76 23 1 -2.0
76 23 1 -2.0
76 23 1 -2.0
76 23 1 -2.0
77 500950241 23 -2.0
77 500950241 23 -2.0
77 500950241 23 -2.0
77 500950241 23 -2.0
77 500950241 23 -2.0
77 500950241 23 -2.0
77 500950241 23 -2.0
77 500950241 23 -2.0
77 500950241 23 -2.0
78 32611 41 -2.0
78 32611 41 -2.0
78 32611 41 -2.0
78 32611 41 -2.0
78 32611 41 -2.0
78 32611 41 -2.0
78 32611 41 -2.0
78 32611 41 -2.0
78 32611 41 -2.0
79 2 1 -2.0
79 2 1 -2.0
79 2 1 -2.0
79 2 1 -2.0
79 2 1 -2.0
79 2 1 -2.0
79 2 1 -2.0
79 2 1 -2.0
79 2 1 -2.0
80 1 1 -2.0
80 1 1 -2.0
80 1 1 -2.0
80 1 1 -2.0
80 1 1 -2.0
80 1 1 -2.0
80 1 1 -2.0
80 1 1 -2.0
80 1 1 -2.0
81 39656177 1 -2.0
81 39656177 1 -2.0
81 39656177 1 -2.0
81 39656177 1 -2.0
81 39656177 1 -2.0
81 39656177 1 -2.0
81 39656177 1 -2.0
81 39656177 1 -2.0
81 39656177 1 -2.0
82 1 1 -2.0
82 1 1 -2.0
82 1 1 -2.0
82 1 1 -2.0
82 1 1 -2.0
82 1 1 -2.0
82 1 1 -2.0
82 1 1 -2.0
82 1 1 -2.0
83 1 1 -2.0
83 1 1 -2.0
83 1 1 -2.0
83 1 1 -2.0
83 1 1 -2.0
83 1 1 -2.0
83 1 1 -2.0
83 1 1 -2.0
83 1 1 -2.0
84 1 1 -2.0
84 1 1 -2.0
84 1 1 -2.0
84 1 1 -2.0
84 1 1 -2.0
84 1 1 -2.0
84 1 1 -2.0
84 1 1 -2.0
84 1 1 -2.0
85 39649857 1 -2.0
85 39649857 1 -2.0
85 39649857 1 -2.0
85 39649857 1 -2.0
85 39649857 1 -2.0
85 39649857 1 -2.0
85 39649857 1 -2.0
85 39649857 1 -2.0
85 39649857 1 -2.0
86 1 1 -2.0
86 1 1 -2.0
86 1 1 -2.0
86 1 1 -2.0
86 1 1 -2.0
86 1 1 -2.0
86 1 1 -2.0
86 1 1 -2.0
86 1 1 -2.0
87 39656209 162 -2.0
87 39656209 162 -2.0
87 39656209 162 -2.0
87 39656209 162 -2.0
87 39656209 162 -2.0
87 39656209 162 -2.0
87 39656209 162 -2.0
87 39656209 162 -2.0
87 39656209 162 -2.0
88 1 1 -2.0
88 1 1 -2.0
88 1 1 -2.0
88 1 1 -2.0
88 1 1 -2.0
88 1 1 -2.0
88 1 1 -2.0
88 1 1 -2.0
88 1 1 -2.0
89 39655937 1 -2.0
89 39655937 1 -2.0
89 39655937 1 -2.0
89 39655937 1 -2.0
89 39655937 1 -2.0
89 39655937 1 -2.0
89 39655937 1 -2.0
89 39655937 1 -2.0
89 39655937 1 -2.0
90 1 1 -2.0
90 1 1 -2.0
90 1 1 -2.0
90 1 1 -2.0
90 1 1 -2.0
90 1 1 -2.0
90 1 1 -2.0
90 1 1 -2.0
90 1 1 -2.0
91 524860281 1 -2.0
91 524860281 1 -2.0
91 524860281 1 -2.0
91 524860281 1 -2.0
91 524860281 1 -2.0
91 524860281 1 -2.0
91 524860281 1 -2.0
91 524860281 1 -2.0
91 524860281 1 -2.0
92 32611 1 2.0
92 32611 1 -2.0
93 1 1 2.0
93 1 1 -2.0
94 2 1 2.0
94 2 1 -2.0
95 1 1 2.0
95 1 1 -2.0
96 1 1 2.0
96 1 1 -2.0
97 2 1 2.0
97 2 1 -2.0
98 2 1 2.0
98 2 1 -2.0
99 114 1 2.0
99 114 1 -2.0
100 1 1 2.0
100 1 1 -2.0
101 39655937 124 2.0
101 39655937 124 -2.0
102 1 1 2.0
102 1 1 -2.0
103 -2147483648 524860281 2.0
103 -2147483648 524860281 -2.0
104 32611 256 2.0
104 32611 256 -2.0
105 1 1 2.0
105 1 1 -2.0
106 1 1 2.0
106 1 1 -2.0
107 34 1 2.0
107 34 1 -2.0
108 1 1 2.0
108 1 1 -2.0
109 1953845015 39672721 2.0
109 1953845015 39672721 -2.0
110 544503153 1 2.0
110 544503153 1 -2.0
111 1701603687 66 2.0
111 1701603687 66 -2.0
112 1734438945 1 2.0
112 1734438945 1 -2.0
113 1769414758 524860281 2.0
113 1769414758 524860281 -2.0
114 6845541 32611 2.0
114 6845541 32611 -2.0
115 39654161 34 2.0
115 39654161 34 -2.0
116 1 1 2.0
116 1 1 -2.0
117 1734430730 1 2.0
117 1734430730 1 -2.0
118 1684625254 2 2.0
118 1684625254 2 -2.0
119 524839029 1 2.0
119 524839029 1 -2.0
120 32611 322 2.0
120 32611 322 -2.0
121 39660161 1 2.0
121 39660161 1 -2.0
122 1 1 2.0
122 1 1 -2.0
123 39655745 50 2.0
123 39655745 50 -2.0
124 1 1 2.0
124 1 1 -2.0
125 1734430730 305 2.0
125 1734430730 305 -2.0
126 1684625254 1 2.0
126 1684625254 1 -2.0
127 524839029 113 2.0
127 524839029 113 -2.0
128 32611 1 2.0
128 32611 1 -2.0
129 500949601 39660593 2.0
129 500949601 39660593 -2.0
130 32611 1 2.0
130 32611 1 -2.0
131 39660385 1 2.0
131 39660385 1 -2.0
132 1 1 2.0
132 1 1 -2.0
133 49 1 2.0
133 49 1 -2.0
134 1 1 2.0
134 1 1 -2.0
135 34 1 2.0
135 34 1 -2.0
136 1 1 2.0
136 1 1 -2.0
850 # number of linear terms in all constraints
1 1 -1.0
1 14 -1.0
1 27 -1.0
1 130 1.0
1 131 -1.0
1 132 -1.0
1 133 -1.0
1 134 -1.0
1 135 -1.0
1 136 -1.0
1 137 -1.0
1 138 -1.0
1 139 -1.0
1 140 -1.0
1 141 -1.0
1 142 -1.0
1 143 -1.0
2 2 -1.0
2 15 -1.0
2 28 -1.0
2 144 1.0
2 145 -1.0
2 146 -1.0
2 147 -1.0
2 148 -1.0
2 149 -1.0
2 150 -1.0
2 151 -1.0
2 152 -1.0
2 153 -1.0
2 154 -1.0
2 155 -1.0
2 156 -1.0
2 157 -1.0
3 3 -1.0
3 16 -1.0
3 29 -1.0
3 158 1.0
3 159 -1.0
3 160 -1.0
3 161 -1.0
3 162 -1.0
3 163 -1.0
3 164 -1.0
3 165 -1.0
3 166 -1.0
3 167 -1.0
3 168 -1.0
3 169 -1.0
3 170 -1.0
3 171 -1.0
4 4 -1.0
4 17 -1.0
4 30 -1.0
4 172 1.0
4 173 -1.0
4 174 -1.0
4 175 -1.0
4 176 -1.0
4 177 -1.0
4 178 -1.0
4 179 -1.0
4 180 -1.0
4 181 -1.0
4 182 -1.0
4 183 -1.0
4 184 -1.0
4 185 -1.0
5 5 -1.0
5 18 -1.0
5 31 -1.0
5 186 1.0
5 187 -1.0
5 188 -1.0
5 189 -1.0
5 190 -1.0
5 191 -1.0
5 192 -1.0
5 193 -1.0
5 194 -1.0
5 195 -1.0
5 196 -1.0
5 197 -1.0
5 198 -1.0
5 199 -1.0
6 6 -1.0
6 19 -1.0
6 32 -1.0
6 200 1.0
6 201 -1.0
6 202 -1.0
6 203 -1.0
6 204 -1.0
6 205 -1.0
6 206 -1.0
6 207 -1.0
6 208 -1.0
6 209 -1.0
6 210 -1.0
6 211 -1.0
6 212 -1.0
6 213 -1.0
7 7 -1.0
7 20 -1.0
7 33 -1.0
7 214 1.0
7 215 -1.0
7 216 -1.0
7 217 -1.0
7 218 -1.0
7 219 -1.0
7 220 -1.0
7 221 -1.0
7 222 -1.0
7 223 -1.0
7 224 -1.0
7 225 -1.0
7 226 -1.0
7 227 -1.0
8 8 -1.0
8 21 -1.0
8 34 -1.0
8 228 1.0
8 229 -1.0
8 230 -1.0
8 231 -1.0
8 232 -1.0
8 233 -1.0
8 234 -1.0
8 235 -1.0
8 236 -1.0
8 237 -1.0
8 238 -1.0
8 239 -1.0
8 240 -1.0
8 241 -1.0
9 9 -1.0
9 22 -1.0
9 35 -1.0
9 242 1.0
9 243 -1.0
9 244 -1.0
9 245 -1.0
9 246 -1.0
9 247 -1.0
9 248 -1.0
9 249 -1.0
9 250 -1.0
9 251 -1.0
9 252 -1.0
9 253 -1.0
9 254 -1.0
9 255 -1.0
10 10 -1.0
10 23 -1.0
10 36 -1.0
10 256 -1.0
10 257 -1.0
10 258 -1.0
10 259 -1.0
10 260 -1.0
10 261 -1.0
10 262 -1.0
10 263 -1.0
10 264 -1.0
10 265 -1.0
10 266 -1.0
10 267 -1.0
10 268 -1.0
11 11 -1.0
11 24 -1.0
11 37 -1.0
11 269 -1.0
11 270 -1.0
11 271 -1.0
11 272 -1.0
11 273 -1.0
11 274 -1.0
11 275 -1.0
11 276 -1.0
11 277 -1.0
11 278 -1.0
11 279 -1.0
11 280 -1.0
11 281 -1.0
12 12 -1.0
12 25 -1.0
12 38 -1.0
12 282 -1.0
12 283 -1.0
12 284 -1.0
12 285 -1.0
12 286 -1.0
12 287 -1.0
12 288 -1.0
12 289 -1.0
12 290 -1.0
12 291 -1.0
12 292 -1.0
12 293 -1.0
12 294 -1.0
13 13 -1.0
13 26 -1.0
13 39 -1.0
13 295 -1.0
13 296 -1.0
13 297 -1.0
13 298 -1.0
13 299 -1.0
13 300 -1.0
13 301 -1.0
13 302 -1.0
13 303 -1.0
13 304 -1.0
13 305 -1.0
13 306 -1.0
13 307 -1.0
14 130 1.0
14 131 -1.0
14 145 -1.0
14 159 -1.0
14 173 -1.0
14 187 -1.0
14 201 -1.0
14 215 -1.0
14 229 -1.0
14 243 -1.0
14 256 -1.0
14 269 -1.0
14 282 -1.0
14 295 -1.0
14 308 -1.0
15 132 -1.0
15 144 1.0
15 146 -1.0
15 160 -1.0
15 174 -1.0
15 188 -1.0
15 202 -1.0
15 216 -1.0
15 230 -1.0
15 244 -1.0
15 257 -1.0
15 270 -1.0
15 283 -1.0
15 296 -1.0
15 309 -1.0
16 133 -1.0
16 147 -1.0
16 158 1.0
16 161 -1.0
16 175 -1.0
16 189 -1.0
16 203 -1.0
16 217 -1.0
16 231 -1.0
16 245 -1.0
16 258 -1.0
16 271 -1.0
16 284 -1.0
16 297 -1.0
16 310 -1.0
17 134 -1.0
17 148 -1.0
17 162 -1.0
17 172 1.0
17 176 -1.0
17 190 -1.0
17 204 -1.0
17 218 -1.0
17 232 -1.0
17 246 -1.0
17 259 -1.0
17 272 -1.0
17 285 -1.0
17 298 -1.0
17 311 -1.0
18 135 -1.0
18 149 -1.0
18 163 -1.0
18 177 -1.0
18 186 1.0
18 191 -1.0
18 205 -1.0
18 219 -1.0
18 233 -1.0
18 247 -1.0
18 260 -1.0
18 273 -1.0
18 286 -1.0
18 299 -1.0
18 312 -1.0
19 136 -1.0
19 150 -1.0
19 164 -1.0
19 178 -1.0
19 192 -1.0
19 200 1.0
19 206 -1.0
19 220 -1.0
19 234 -1.0
19 248 -1.0
19 261 -1.0
19 274 -1.0
19 287 -1.0
19 300 -1.0
19 313 -1.0
20 137 -1.0
20 151 -1.0
20 165 -1.0
20 179 -1.0
20 193 -1.0
20 207 -1.0
20 214 1.0
20 221 -1.0
20 235 -1.0
20 249 -1.0
20 262 -1.0
20 275 -1.0
20 288 -1.0
20 301 -1.0
20 314 -1.0
21 138 -1.0
21 152 -1.0
21 166 -1.0
21 180 -1.0
21 194 -1.0
21 208 -1.0
21 222 -1.0
21 228 1.0
21 236 -1.0
21 250 -1.0
21 263 -1.0
21 276 -1.0
21 289 -1.0
21 302 -1.0
21 315 -1.0
22 139 -1.0
22 153 -1.0
22 167 -1.0
22 181 -1.0
22 195 -1.0
22 209 -1.0
22 223 -1.0
22 237 -1.0
22 242 1.0
22 251 -1.0
22 264 -1.0
22 277 -1.0
22 290 -1.0
22 303 -1.0
22 316 -1.0
23 140 -1.0
23 154 -1.0
23 168 -1.0
23 182 -1.0
23 196 -1.0
23 210 -1.0
23 224 -1.0
23 238 -1.0
23 252 -1.0
23 265 -1.0
23 278 -1.0
23 291 -1.0
23 304 -1.0
23 317 -1.0
24 141 -1.0
24 155 -1.0
24 169 -1.0
24 183 -1.0
24 197 -1.0
24 211 -1.0
24 225 -1.0
24 239 -1.0
24 253 -1.0
24 266 -1.0
24 279 -1.0
24 292 -1.0
24 305 -1.0
24 318 -1.0
25 142 -1.0
25 156 -1.0
25 170 -1.0
25 184 -1.0
25 198 -1.0
25 212 -1.0
25 226 -1.0
25 240 -1.0
25 254 -1.0
25 267 -1.0
25 280 -1.0
25 293 -1.0
25 306 -1.0
25 319 -1.0
26 143 -1.0
26 157 -1.0
26 171 -1.0
26 185 -1.0
26 199 -1.0
26 213 -1.0
26 227 -1.0
26 241 -1.0
26 255 -1.0
26 268 -1.0
26 281 -1.0
26 294 -1.0
26 307 -1.0
26 320 -1.0
27 1 -3.0
27 14 -8.0
27 27 -10.0
27 140 -893.0
27 141 -810.0
27 142 -757.0
27 143 -1016.0
28 1 -3.0
28 14 -9.0
28 140 -849.0
28 141 -968.0
28 142 -545.0
28 143 -953.0
29 1 -8.0
29 14 -10.0
29 27 -3.0
29 140 -947.0
29 141 -481.0
29 142 -785.0
29 143 -473.0
30 1 -8.0
30 14 -2.0
30 27 -9.0
30 140 -613.0
30 141 -771.0
30 142 -689.0
30 143 -971.0
31 1 -4.0
31 14 -4.0
31 27 -8.0
31 140 -440.0
31 141 -998.0
31 142 -986.0
31 143 -620.0
32 2 -3.0
32 15 -8.0
32 28 -10.0
32 154 -893.0
32 155 -810.0
32 156 -757.0
32 157 -1016.0
33 2 -3.0
33 15 -9.0
33 154 -849.0
33 155 -968.0
33 156 -545.0
33 157 -953.0
34 2 -8.0
34 15 -10.0
34 28 -3.0
34 154 -947.0
34 155 -481.0
34 156 -785.0
34 157 -473.0
35 2 -8.0
35 15 -2.0
35 28 -9.0
35 154 -613.0
35 155 -771.0
35 156 -689.0
35 157 -971.0
36 2 -4.0
36 15 -4.0
36 28 -8.0
36 154 -440.0
36 155 -998.0
36 156 -986.0
36 157 -620.0
37 3 -3.0
37 16 -8.0
37 29 -10.0
37 168 -893.0
37 169 -810.0
37 170 -757.0
37 171 -1016.0
38 3 -3.0
38 16 -9.0
38 168 -849.0
38 169 -968.0
38 170 -545.0
38 171 -953.0
39 3 -8.0
39 16 -10.0
39 29 -3.0
39 168 -947.0
39 169 -481.0
39 170 -785.0
39 171 -473.0
40 3 -8.0
40 16 -2.0
40 29 -9.0
40 168 -613.0
40 169 -771.0
40 170 -689.0
40 171 -971.0
41 3 -4.0
41 16 -4.0
41 29 -8.0
41 168 -440.0
41 169 -998.0
41 170 -986.0
41 171 -620.0
42 4 -3.0
42 17 -8.0
42 30 -10.0
42 182 -893.0
42 183 -810.0
42 184 -757.0
42 185 -1016.0
43 4 -3.0
43 17 -9.0
43 182 -849.0
43 183 -968.0
43 184 -545.0
43 185 -953.0
44 4 -8.0
44 17 -10.0
44 30 -3.0
44 182 -947.0
44 183 -481.0
44 184 -785.0
44 185 -473.0
45 4 -8.0
45 17 -2.0
45 30 -9.0
45 182 -613.0
45 183 -771.0
45 184 -689.0
45 185 -971.0
46 4 -4.0
46 17 -4.0
46 30 -8.0
46 182 -440.0
46 183 -998.0
46 184 -986.0
46 185 -620.0
47 5 -3.0
47 18 -8.0
47 31 -10.0
47 196 -893.0
47 197 -810.0
47 198 -757.0
47 199 -1016.0
48 5 -3.0
48 18 -9.0
48 196 -849.0
48 197 -968.0
48 198 -545.0
48 199 -953.0
49 5 -8.0
49 18 -10.0
49 31 -3.0
49 196 -947.0
49 197 -481.0
49 198 -785.0
49 199 -473.0
50 5 -8.0
50 18 -2.0
50 31 -9.0
50 196 -613.0
50 197 -771.0
50 198 -689.0
50 199 -971.0
51 5 -4.0
51 18 -4.0
51 31 -8.0
51 196 -440.0
51 197 -998.0
51 198 -986.0
51 199 -620.0
52 6 -3.0
52 19 -8.0
52 32 -10.0
52 210 -893.0
52 211 -810.0
52 212 -757.0
52 213 -1016.0
53 6 -3.0
53 19 -9.0
53 210 -849.0
53 211 -968.0
53 212 -545.0
53 213 -953.0
54 6 -8.0
54 19 -10.0
54 32 -3.0
54 210 -947.0
54 211 -481.0
54 212 -785.0
54 213 -473.0
55 6 -8.0
55 19 -2.0
55 32 -9.0
55 210 -613.0
55 211 -771.0
55 212 -689.0
55 213 -971.0
56 6 -4.0
56 19 -4.0
56 32 -8.0
56 210 -440.0
56 211 -998.0
56 212 -986.0
56 213 -620.0
57 7 -3.0
57 20 -8.0
57 33 -10.0
57 224 -893.0
57 225 -810.0
57 226 -757.0
57 227 -1016.0
58 7 -3.0
58 20 -9.0
58 224 -849.0
58 225 -968.0
58 226 -545.0
58 227 -953.0
59 7 -8.0
59 20 -10.0
59 33 -3.0
59 224 -947.0
59 225 -481.0
59 226 -785.0
59 227 -473.0
60 7 -8.0
60 20 -2.0
60 33 -9.0
60 224 -613.0
60 225 -771.0
60 226 -689.0
60 227 -971.0
61 7 -4.0
61 20 -4.0
61 33 -8.0
61 224 -440.0
61 225 -998.0
61 226 -986.0
61 227 -620.0
62 8 -3.0
62 21 -8.0
62 34 -10.0
62 238 -893.0
62 239 -810.0
62 240 -757.0
62 241 -1016.0
63 8 -3.0
63 21 -9.0
63 238 -849.0
63 239 -968.0
63 240 -545.0
63 241 -953.0
64 8 -8.0
64 21 -10.0
64 34 -3.0
64 238 -947.0
64 239 -481.0
64 240 -785.0
64 241 -473.0
65 8 -8.0
65 21 -2.0
65 34 -9.0
65 238 -613.0
65 239 -771.0
65 240 -689.0
65 241 -971.0
66 8 -4.0
66 21 -4.0
66 34 -8.0
66 238 -440.0
66 239 -998.0
66 240 -986.0
66 241 -620.0
67 9 -3.0
67 22 -8.0
67 35 -10.0
67 252 -893.0
67 253 -810.0
67 254 -757.0
67 255 -1016.0
68 9 -3.0
68 22 -9.0
68 252 -849.0
68 253 -968.0
68 254 -545.0
68 255 -953.0
69 9 -8.0
69 22 -10.0
69 35 -3.0
69 252 -947.0
69 253 -481.0
69 254 -785.0
69 255 -473.0
70 9 -8.0
70 22 -2.0
70 35 -9.0
70 252 -613.0
70 253 -771.0
70 254 -689.0
70 255 -971.0
71 9 -4.0
71 22 -4.0
71 35 -8.0
71 252 -440.0
71 253 -998.0
71 254 -986.0
71 255 -620.0
72 10 -3.0
72 23 -8.0
72 36 -10.0
72 265 -893.0
72 266 -810.0
72 267 -757.0
72 268 -1016.0
73 10 -3.0
73 23 -9.0
73 265 -849.0
73 266 -968.0
73 267 -545.0
73 268 -953.0
74 10 -8.0
74 23 -10.0
74 36 -3.0
74 265 -947.0
74 266 -481.0
74 267 -785.0
74 268 -473.0
75 10 -8.0
75 23 -2.0
75 36 -9.0
75 265 -613.0
75 266 -771.0
75 267 -689.0
75 268 -971.0
76 10 -4.0
76 23 -4.0
76 36 -8.0
76 265 -440.0
76 266 -998.0
76 267 -986.0
76 268 -620.0
77 11 -3.0
77 24 -8.0
77 37 -10.0
77 278 -893.0
77 279 -810.0
77 280 -757.0
77 281 -1016.0
78 11 -3.0
78 24 -9.0
78 278 -849.0
78 279 -968.0
78 280 -545.0
78 281 -953.0
79 11 -8.0
79 24 -10.0
79 37 -3.0
79 278 -947.0
79 279 -481.0
79 280 -785.0
79 281 -473.0
80 11 -8.0
80 24 -2.0
80 37 -9.0
80 278 -613.0
80 279 -771.0
80 280 -689.0
80 281 -971.0
81 11 -4.0
81 24 -4.0
81 37 -8.0
81 278 -440.0
81 279 -998.0
81 280 -986.0
81 281 -620.0
82 12 -3.0
82 25 -8.0
82 38 -10.0
82 291 -893.0
82 292 -810.0
82 293 -757.0
82 294 -1016.0
83 12 -3.0
83 25 -9.0
83 291 -849.0
83 292 -968.0
83 293 -545.0
83 294 -953.0
84 12 -8.0
84 25 -10.0
84 38 -3.0
84 291 -947.0
84 292 -481.0
84 293 -785.0
84 294 -473.0
85 12 -8.0
85 25 -2.0
85 38 -9.0
85 291 -613.0
85 292 -771.0
85 293 -689.0
85 294 -971.0
86 12 -4.0
86 25 -4.0
86 38 -8.0
86 291 -440.0
86 292 -998.0
86 293 -986.0
86 294 -620.0
87 13 -3.0
87 26 -8.0
87 39 -10.0
87 304 -893.0
87 305 -810.0
87 306 -757.0
87 307 -1016.0
88 13 -3.0
88 26 -9.0
88 304 -849.0
88 305 -968.0
88 306 -545.0
88 307 -953.0
89 13 -8.0
89 26 -10.0
89 39 -3.0
89 304 -947.0
89 305 -481.0
89 306 -785.0
89 307 -473.0
90 13 -8.0
90 26 -2.0
90 39 -9.0
90 304 -613.0
90 305 -771.0
90 306 -689.0
90 307 -971.0
91 13 -4.0
91 26 -4.0
91 39 -8.0
91 304 -440.0
91 305 -998.0
91 306 -986.0
91 307 -620.0
1.79769313486232E+308 # value for infinity
0.0 # default left-hand-side value
73 # number of non-default left-hand-sides
10 -115.0
11 -85.0
12 -95.0
13 -80.0
23 -75.0
24 -95.0
25 -100.0
26 -70.0
72 -75555.0
73 -52440.0
74 -31970.0
75 -60720.0
76 -27600.0
77 -1275.0
78 -46155.0
79 -23460.0
80 -36210.0
81 -36720.0
82 -70490.0
83 -8360.0
84 -18715.0
85 -32395.0
86 -57095.0
87 -75040.0
88 -75760.0
89 -19920.0
90 -76320.0
91 -40720.0
92 -105592.0
93 -15276.0
94 -24656.0
95 -22646.0
96 -7236.0
97 -35520.0
98 -26492.0
99 -9324.0
100 -39516.0
101 -31302.0
102 -13156.0
103 -13468.0
104 -5642.0
105 -15184.0
106 -12766.0
107 -52712.0
108 -33088.0
109 -59048.0
110 -86328.0
111 -53944.0
112 -108400.0
113 -43200.0
114 -56700.0
115 -9900.0
116 -25100.0
117 -6050.0
118 -31900.0
119 -29700.0
120 -24310.0
121 -9680.0
122 -6750.0
123 -15500.0
124 -15950.0
125 -28400.0
126 -5800.0
127 -116550.0
128 -70938.0
129 -59346.0
130 -15624.0
131 -26082.0
132 -30624.0
133 -27492.0
134 -10904.0
135 -22852.0
136 -6612.0
0.0 # default right-hand-side value
73 # number of non-default right-hand-sides
10 -115.0
11 -85.0
12 -95.0
13 -80.0
23 -75.0
24 -95.0
25 -100.0
26 -70.0
72 1.79769313486232E+308
73 1.79769313486232E+308
74 1.79769313486232E+308
75 1.79769313486232E+308
76 1.79769313486232E+308
77 1.79769313486232E+308
78 1.79769313486232E+308
79 1.79769313486232E+308
80 1.79769313486232E+308
81 1.79769313486232E+308
82 1.79769313486232E+308
83 1.79769313486232E+308
84 1.79769313486232E+308
85 1.79769313486232E+308
86 1.79769313486232E+308
87 1.79769313486232E+308
88 1.79769313486232E+308
89 1.79769313486232E+308
90 1.79769313486232E+308
91 1.79769313486232E+308
92 -105592.0
93 -15276.0
94 -24656.0
95 -22646.0
96 -7236.0
97 -35520.0
98 -26492.0
99 -9324.0
100 -39516.0
101 -31302.0
102 -13156.0
103 -13468.0
104 -5642.0
105 -15184.0
106 -12766.0
107 -52712.0
108 -33088.0
109 -59048.0
110 -86328.0
111 -53944.0
112 -108400.0
113 -43200.0
114 -56700.0
115 -9900.0
116 -25100.0
117 -6050.0
118 -31900.0
119 -29700.0
120 -24310.0
121 -9680.0
122 -6750.0
123 -15500.0
124 -15950.0
125 -28400.0
126 -5800.0
127 -116550.0
128 -70938.0
129 -59346.0
130 -15624.0
131 -26082.0
132 -30624.0
133 -27492.0
134 -10904.0
135 -22852.0
136 -6612.0
0.0 # default variable lower bound value
0 # number of non-default variable lower bounds
100000.0 # default variable upper bound value
99 # number of non-default variable upper bounds
40 279.0
41 532.0
42 86.0
43 952.0
44 178.0
45 700.0
46 827.0
47 272.0
48 589.0
49 619.0
50 400.0
51 460.0
52 710.0
53 514.0
54 590.0
55 514.0
56 540.0
57 328.0
58 9.0
59 277.0
60 85.0
61 541.0
62 227.0
63 825.0
64 111.0
65 900.0
66 323.0
67 549.0
68 213.0
69 27.0
70 805.0
71 871.0
72 101.0
73 377.0
74 512.0
75 272.0
76 46.0
77 636.0
78 933.0
79 413.0
80 233.0
81 279.0
82 760.0
83 516.0
84 178.0
85 1067.0
86 646.0
87 270.0
88 1121.0
89 232.0
90 1180.0
91 1185.0
92 398.0
93 1123.0
94 1042.0
95 906.0
96 978.0
97 927.0
98 1098.0
99 1081.0
100 1113.0
101 916.0
102 999.0
103 990.0
104 890.0
105 1169.0
106 973.0
107 794.0
108 924.0
109 362.0
110 1010.0
111 903.0
112 1089.0
113 655.0
114 203.0
115 940.0
116 1181.0
117 420.0
118 945.0
119 628.0
120 1197.0
121 609.0
122 1107.0
123 1057.0
124 620.0
125 761.0
126 753.0
127 948.0
128 910.0
129 292.0
130 134.0
144 74.0
158 26.0
172 88.0
186 100.0
200 55.0
214 50.0
228 126.0
242 58.0
0.0 # default variable primal value in starting point
0 # number of non-default variable primal values in starting point
0.0 # default constraint dual value in starting point
0 # number of non-default constraint dual values in starting point
0.0 # default variable bound dual value in starting point
0 # number of non-default variable bound dual values in starting point
0 # number of non-default variable names
0 # number of non-default constraint names
